HFSDDW
15	6	3
0	22	1	38	2	48
0	59	1	38	2	66
0	54	1	39	2	99
0	55	1	13	2	11
0	62	1	6	2	90
0	12	1	72	2	61
0	10	1	88	2	88
0	96	1	92	2	91
0	82	1	69	2	73
0	61	1	64	2	21
0	5	1	49	2	77
0	46	1	70	2	97
0	27	1	91	2	95
0	68	1	38	2	72
0	91	1	19	2	73
LBCmax: 588
RELDUE
-1	194	9	9
-1	195	7	8
-1	272	5	6
-1	209	3	2
-1	177	4	9
-1	262	8	8
-1	273	6	4
-1	286	5	2
-1	255	1	7
-1	196	2	7
-1	205	5	9
-1	229	3	6
-1	242	5	2
-1	267	6	1
-1	257	3	5
DDW
182	206
179	211
267	277
203	215
163	191
249	275
246	300
280	292
237	273
194	198
187	223
227	231
230	254
256	278
252	262
